(set-logic QF_LIA)
(set-info :ran/ran2.smt2)
(set-info :smt-lib-version 2.0)
(declare-fun x1 () Int)
(declare-fun x2 () Int)
(declare-fun x3 () Int)
(assert (<= (+ (* 8 x1) (* 3 x2) (* (- 8) x3) ) 418))
(assert (<= (+ (* 3 x1) (* (- 1) x2) (* 3 x3) ) 402))
(assert (<= (+ (* 5 x1) (* 6 x2) (* 10 x3) ) 121))
(assert (<= (+ (* (- 2) x1) (* 1 x2) (* (- 1) x3) ) 67))
(assert (<= (+ (* (- 8) x1) (* (- 6) x2) (* 6 x3) ) 899))
(assert (<= (+ (* (- 4) x1) (* 7 x2) (* (- 5) x3) ) 643))
(assert (<= (+ (* 1 x1) (* 0 x2) (* 0 x3) ) 1258))
(assert (<= (+ (* (- 1) x1) (* 0 x2) (* 0 x3) ) 1258))
(assert (<= (+ (* 0 x1) (* 1 x2) (* 0 x3) ) 1258))
(assert (<= (+ (* 0 x1) (* (- 1) x2) (* 0 x3) ) 1258))
(assert (<= (+ (* 0 x1) (* 0 x2) (* 1 x3) ) 1258))
(assert (<= (+ (* 0 x1) (* 0 x2) (* (- 1) x3) ) 1258))
